p cnf 12 50 
-9 -1 -2 0
12 11 2 0
-11 -12 5 0
-2 -3 -12 0
4 -2 12 0
9 -5 1 0
-9 12 1 0
-9 1 -12 0
-11 -4 -5 0
5 -4 12 0
-11 -10 -3 0
-5 -12 10 0
-10 -3 5 0
11 -3 -7 0
12 -1 -9 0
5 -9 -1 0
1 -8 9 0
6 5 1 0
-9 -3 11 0
-2 7 -12 0
-3 -2 4 0
-8 -10 6 0
-5 8 -1 0
-5 -7 8 0
2 7 -11 0
-10 6 3 0
3 -9 5 0
3 -4 9 0
10 11 -1 0
-4 9 -6 0
9 -2 -10 0
7 6 11 0
4 3 -11 0
7 1 -12 0
8 -9 -10 0
-12 5 9 0
1 10 9 0
-11 -3 5 0
5 1 -2 0
6 7 2 0
4 12 -5 0
-12 -10 -11 0
1 6 11 0
-7 10 -11 0
1 -3 -12 0
-10 6 8 0
1 -6 -3 0
-3 4 -11 0
-12 -1 5 0
-5 11 9 0
